(set-info :smt-lib-version 2.6)
(set-logic QF_NIA)
(set-info :source |
Generated by: Cristina Borralleras, Daniel Larraz, Albert Oliveras, Enric Rodriguez-Carbonell, Albert Rubio
Generated on: 2017-04-27
Generator: VeryMax
Application: Termination proving
Target solver: barcelogic
|)
(set-info :license "https://creativecommons.org/licenses/by/4.0/")
(set-info :category "industrial")
(set-info :status unsat)
(declare-fun Nl4arg11 () Int)
(declare-fun Nl4arg21 () Int)
(declare-fun Nl4arg31 () Int)
(declare-fun Nl4arg41 () Int)
(declare-fun Nl4arg51 () Int)
(declare-fun Nl4arg61 () Int)
(declare-fun Nl4arg71 () Int)
(declare-fun Nl4arg81 () Int)
(declare-fun Nl4arg91 () Int)
(declare-fun Nl4arg101 () Int)
(declare-fun Nl4arg111 () Int)
(declare-fun Nl4arg121 () Int)
(declare-fun Nl4arg131 () Int)
(declare-fun Nl4arg141 () Int)
(declare-fun lam0n0 () Int)
(declare-fun lam0n1 () Int)
(declare-fun lam0n2 () Int)
(declare-fun lam0n3 () Int)
(declare-fun lam0n4 () Int)
(declare-fun lam0n5 () Int)
(declare-fun lam0n6 () Int)
(declare-fun lam0n7 () Int)
(declare-fun lam0n8 () Int)
(declare-fun lam0n9 () Int)
(declare-fun lam0n10 () Int)
(declare-fun lam0n11 () Int)
(declare-fun lam0n12 () Int)
(declare-fun lam0n13 () Int)
(declare-fun lam0n14 () Int)
(declare-fun lam0n15 () Int)
(declare-fun Nl4CT1 () Int)
(declare-fun lam1n0 () Int)
(declare-fun lam1n1 () Int)
(declare-fun lam1n2 () Int)
(declare-fun lam1n3 () Int)
(declare-fun lam1n4 () Int)
(declare-fun lam1n5 () Int)
(declare-fun lam1n6 () Int)
(declare-fun lam1n7 () Int)
(declare-fun lam1n8 () Int)
(declare-fun lam1n9 () Int)
(declare-fun lam1n10 () Int)
(declare-fun lam1n11 () Int)
(declare-fun lam1n12 () Int)
(declare-fun lam1n13 () Int)
(declare-fun lam1n14 () Int)
(declare-fun lam1n15 () Int)
(declare-fun lam2n0 () Int)
(declare-fun lam2n1 () Int)
(declare-fun lam2n2 () Int)
(declare-fun lam2n3 () Int)
(declare-fun lam2n4 () Int)
(declare-fun lam2n5 () Int)
(declare-fun lam2n6 () Int)
(declare-fun lam2n7 () Int)
(declare-fun lam2n8 () Int)
(declare-fun undef31 () Int)
(declare-fun undef402 () Int)
(declare-fun undef191 () Int)
(declare-fun undef202 () Int)
(declare-fun undef203 () Int)
(declare-fun undef403 () Int)
(declare-fun undef188 () Int)
(declare-fun undef30 () Int)
(declare-fun undef37 () Int)
(declare-fun undef38 () Int)
(declare-fun undef39 () Int)
(declare-fun undef40 () Int)
(declare-fun undef41 () Int)
(declare-fun undef42 () Int)
(declare-fun undef43 () Int)
(declare-fun lam3n0 () Int)
(declare-fun lam3n1 () Int)
(declare-fun lam3n2 () Int)
(declare-fun lam3n3 () Int)
(declare-fun lam3n4 () Int)
(declare-fun lam3n5 () Int)
(declare-fun lam3n6 () Int)
(declare-fun lam3n7 () Int)
(declare-fun lam3n8 () Int)
(declare-fun lam3n9 () Int)
(declare-fun lam3n10 () Int)
(declare-fun lam3n11 () Int)
(declare-fun lam3n12 () Int)
(declare-fun lam3n13 () Int)
(declare-fun lam3n14 () Int)
(declare-fun lam3n15 () Int)
(declare-fun lam3n16 () Int)
(declare-fun lam3n17 () Int)
(declare-fun lam3n18 () Int)
(declare-fun lam3n19 () Int)
(declare-fun lam3n20 () Int)
(declare-fun lam3n21 () Int)
(declare-fun lam3n22 () Int)
(declare-fun lam3n23 () Int)
(declare-fun lam3n24 () Int)
(declare-fun lam3n25 () Int)
(declare-fun lam4n0 () Int)
(declare-fun lam4n1 () Int)
(declare-fun lam4n2 () Int)
(declare-fun lam4n3 () Int)
(declare-fun lam4n4 () Int)
(declare-fun lam4n5 () Int)
(declare-fun lam4n6 () Int)
(declare-fun lam4n7 () Int)
(declare-fun lam4n8 () Int)
(declare-fun lam4n9 () Int)
(declare-fun lam4n10 () Int)
(declare-fun lam4n11 () Int)
(declare-fun lam4n12 () Int)
(declare-fun lam4n13 () Int)
(declare-fun lam4n14 () Int)
(declare-fun lam4n15 () Int)
(declare-fun lam4n16 () Int)
(declare-fun lam4n17 () Int)
(declare-fun lam4n18 () Int)
(declare-fun lam4n19 () Int)
(declare-fun lam4n20 () Int)
(declare-fun lam4n21 () Int)
(declare-fun lam4n22 () Int)
(declare-fun lam4n23 () Int)
(declare-fun lam4n24 () Int)
(declare-fun lam4n25 () Int)
(assert ( and ( <= ( - 2 ) Nl4arg11 ) ( <= Nl4arg11 2 ) ( <= ( - 2 ) Nl4arg21 ) ( <= Nl4arg21 2 ) ( <= ( - 2 ) Nl4arg31 ) ( <= Nl4arg31 2 ) ( <= ( - 2 ) Nl4arg41 ) ( <= Nl4arg41 2 ) ( <= ( - 2 ) Nl4arg51 ) ( <= Nl4arg51 2 ) ( <= ( - 2 ) Nl4arg61 ) ( <= Nl4arg61 2 ) ( <= ( - 2 ) Nl4arg71 ) ( <= Nl4arg71 2 ) ( <= ( - 2 ) Nl4arg81 ) ( <= Nl4arg81 2 ) ( <= ( - 2 ) Nl4arg91 ) ( <= Nl4arg91 2 ) ( <= ( - 2 ) Nl4arg101 ) ( <= Nl4arg101 2 ) ( <= ( - 2 ) Nl4arg111 ) ( <= Nl4arg111 2 ) ( <= ( - 2 ) Nl4arg121 ) ( <= Nl4arg121 2 ) ( <= ( - 2 ) Nl4arg131 ) ( <= Nl4arg131 2 ) ( <= ( - 2 ) Nl4arg141 ) ( <= Nl4arg141 2 ) ))
(assert ( or ( and ( >= lam0n0 0 ) ( >= lam0n1 0 ) ( >= lam0n2 0 ) ( >= lam0n3 0 ) ( >= lam0n4 0 ) ( >= lam0n5 0 ) ( >= lam0n6 0 ) ( >= lam0n7 0 ) ( >= lam0n8 0 ) ( >= lam0n9 0 ) ( >= lam0n10 0 ) ( >= lam0n11 0 ) ( >= lam0n12 0 ) ( >= lam0n13 0 ) ( >= lam0n14 0 ) ( >= lam0n15 0 ) ( > ( + ( * 1 lam0n0 ) ( * 3 lam0n7 ) ( * 3 lam0n8 ) ( * 2 lam0n9 ) ( * 2 lam0n10 ) ( * 2 lam0n11 ) ( * 4 lam0n12 ) ( * 4 lam0n13 ) ( * 4 lam0n14 ) ( * Nl4CT1 lam0n15 ) ( - 1 ) ) 0 ) ( = ( + ( * ( - 1 ) lam0n7 ) ( * ( - 1 ) lam0n8 ) ( * ( - 1 ) lam0n12 ) ( * Nl4arg11 lam0n15 ) ) 0 ) ( = ( + ( * ( - 1 ) lam0n0 ) ( * Nl4arg21 lam0n15 ) ) 0 ) ( = ( + ( * ( - 1 ) lam0n9 ) ( * ( - 1 ) lam0n10 ) ( * Nl4arg31 lam0n15 ) ) 0 ) ( = ( + ( * ( - 1 ) lam0n1 ) ( * 1 lam0n10 ) ( * Nl4arg41 lam0n15 ) ) 0 ) ( = ( + ( * ( - 1 ) lam0n11 ) ( * Nl4arg51 lam0n15 ) ) 0 ) ( = ( + ( * 1 lam0n7 ) ( * Nl4arg61 lam0n15 ) ) 0 ) ( = ( + ( * 1 lam0n8 ) ( * Nl4arg71 lam0n15 ) ) 0 ) ( = ( * Nl4arg81 lam0n15 ) 0 ) ( = ( * Nl4arg91 lam0n15 ) 0 ) ( = ( * Nl4arg101 lam0n15 ) 0 ) ( = ( * Nl4arg111 lam0n15 ) 0 ) ( = ( * Nl4arg121 lam0n15 ) 0 ) ( = ( * Nl4arg131 lam0n15 ) 0 ) ( = ( * Nl4arg141 lam0n15 ) 0 ) ( = ( * ( - 1 ) lam0n13 ) 0 ) ( = ( * ( - 1 ) lam0n2 ) 0 ) ( = ( * ( - 1 ) lam0n3 ) 0 ) ( = ( * ( - 1 ) lam0n14 ) 0 ) ( = ( * ( - 1 ) lam0n4 ) 0 ) ( = ( * ( - 1 ) lam0n5 ) 0 ) ( = ( * ( - 1 ) lam0n6 ) 0 ) ) ( and ( >= lam1n0 0 ) ( >= lam1n1 0 ) ( >= lam1n2 0 ) ( >= lam1n3 0 ) ( >= lam1n4 0 ) ( >= lam1n5 0 ) ( >= lam1n6 0 ) ( >= lam1n7 0 ) ( >= lam1n8 0 ) ( >= lam1n9 0 ) ( >= lam1n10 0 ) ( >= lam1n11 0 ) ( >= lam1n12 0 ) ( >= lam1n13 0 ) ( >= lam1n14 0 ) ( >= lam1n15 0 ) ( > ( + ( * 1 lam1n0 ) ( * 3 lam1n7 ) ( * 3 lam1n8 ) ( * 2 lam1n9 ) ( * 2 lam1n10 ) ( * 2 lam1n11 ) ( * 4 lam1n12 ) ( * 4 lam1n13 ) ( * 4 lam1n14 ) ( * Nl4CT1 lam1n15 ) ( - 1 ( + ( + ( + ( + ( + ( + ( + ( + ( + ( + ( + ( + ( + Nl4CT1 ( * Nl4arg11 0 ) ) ( * Nl4arg21 ( - 1 ) ) ) ( * Nl4arg41 2 ) ) ( * Nl4arg51 0 ) ) ( * Nl4arg61 0 ) ) ( * Nl4arg71 0 ) ) ( * Nl4arg81 0 ) ) ( * Nl4arg91 0 ) ) ( * Nl4arg101 0 ) ) ( * Nl4arg111 0 ) ) ( * Nl4arg121 0 ) ) ( * Nl4arg131 0 ) ) ( * Nl4arg141 0 ) ) ) ) 0 ) ( = ( + ( * ( - 1 ) lam1n7 ) ( * ( - 1 ) lam1n8 ) ( * ( - 1 ) lam1n12 ) ( * Nl4arg11 lam1n15 ) ) 0 ) ( = ( + ( * ( - 1 ) lam1n0 ) ( * Nl4arg21 lam1n15 ) ( - ( + 0 ( * Nl4arg21 1 ) ) ) ) 0 ) ( = ( + ( * ( - 1 ) lam1n9 ) ( * ( - 1 ) lam1n10 ) ( * Nl4arg31 lam1n15 ) ( - ( + 0 Nl4arg31 ) ) ) 0 ) ( = ( + ( * ( - 1 ) lam1n1 ) ( * 1 lam1n10 ) ( * Nl4arg41 lam1n15 ) ( - ( + 0 ( * Nl4arg41 1 ) ) ) ) 0 ) ( = ( + ( * ( - 1 ) lam1n11 ) ( * Nl4arg51 lam1n15 ) ) 0 ) ( = ( + ( * 1 lam1n7 ) ( * Nl4arg61 lam1n15 ) ) 0 ) ( = ( + ( * 1 lam1n8 ) ( * Nl4arg71 lam1n15 ) ) 0 ) ( = ( * Nl4arg81 lam1n15 ) 0 ) ( = ( * Nl4arg91 lam1n15 ) 0 ) ( = ( * Nl4arg101 lam1n15 ) 0 ) ( = ( * Nl4arg111 lam1n15 ) 0 ) ( = ( * Nl4arg121 lam1n15 ) 0 ) ( = ( * Nl4arg131 lam1n15 ) 0 ) ( = ( * Nl4arg141 lam1n15 ) 0 ) ( = ( + ( * ( - 1 ) lam1n13 ) ( - ( + 0 ( * Nl4arg11 1 ) ) ) ) 0 ) ( = ( - ( + 0 ( * Nl4arg51 1 ) ) ) 0 ) ( = ( - ( + 0 ( * Nl4arg61 1 ) ) ) 0 ) ( = ( - ( + 0 ( * Nl4arg71 1 ) ) ) 0 ) ( = ( - ( + 0 ( * Nl4arg81 1 ) ) ) 0 ) ( = ( - ( + 0 ( * Nl4arg91 1 ) ) ) 0 ) ( = ( - ( + 0 ( * Nl4arg101 1 ) ) ) 0 ) ( = ( - ( + 0 ( * Nl4arg111 1 ) ) ) 0 ) ( = ( - ( + 0 ( * Nl4arg121 1 ) ) ) 0 ) ( = ( - ( + 0 ( * Nl4arg131 1 ) ) ) 0 ) ( = ( - ( + 0 ( * Nl4arg141 1 ) ) ) 0 ) ( = ( * ( - 1 ) lam1n2 ) 0 ) ( = ( * ( - 1 ) lam1n3 ) 0 ) ( = ( * ( - 1 ) lam1n14 ) 0 ) ( = ( * ( - 1 ) lam1n4 ) 0 ) ( = ( * ( - 1 ) lam1n5 ) 0 ) ( = ( * ( - 1 ) lam1n6 ) 0 ) ) ))
(assert ( and ( not ( <= undef31 0 ) ) ( <= ( + 1 ( * ( - 1 ) undef402 ) ) 0 ) ( <= ( * ( - 1 ) undef191 ) 0 ) ( <= ( * ( - 1 ) undef202 ) 0 ) ( <= ( * ( - 1 ) undef203 ) 0 ) ( not ( <= ( + ( - 2 ) undef403 ) 0 ) ) ( <= ( + 4 ( * ( - 1 ) undef188 ) ) 0 ) ( <= ( + ( - 14 ) undef30 ( * ( - 1 ) undef402 ) ) 0 ) ( <= ( + 15 ( * ( - 1 ) undef30 ) ) 0 ) ( <= ( + ( + ( + ( + ( + ( + ( + ( + ( + ( + ( + ( + ( + ( + ( + Nl4CT1 ( * Nl4arg11 0 ) ) ( * Nl4arg21 0 ) ) ( * Nl4arg31 0 ) ) ( * Nl4arg41 1 ) ) ( * Nl4arg51 16 ) ) ( * Nl4arg61 0 ) ) ( * Nl4arg71 12 ) ) ( * Nl4arg81 0 ) ) ( * Nl4arg91 0 ) ) ( * Nl4arg101 0 ) ) ( * Nl4arg111 0 ) ) ( * Nl4arg121 0 ) ) ( * Nl4arg131 0 ) ) ( * Nl4arg141 0 ) ) ( * ( + 0 ( * Nl4arg11 1 ) ) undef30 ) ( * ( + 0 ( * Nl4arg21 1 ) ) undef31 ) ( * ( + 0 ( * Nl4arg81 1 ) ) undef37 ) ( * ( + 0 ( * Nl4arg91 1 ) ) undef38 ) ( * ( + 0 ( * Nl4arg101 1 ) ) undef39 ) ( * ( + 0 ( * Nl4arg111 1 ) ) undef40 ) ( * ( + 0 ( * Nl4arg121 1 ) ) undef41 ) ( * ( + 0 ( * Nl4arg131 1 ) ) undef42 ) ( * ( + 0 ( * Nl4arg141 1 ) ) undef43 ) ( * ( + 0 ( * Nl4arg31 1 ) ) undef403 ) ) 0 ) ))
(assert ( or ( or ( and ( >= lam3n0 0 ) ( >= lam3n1 0 ) ( >= lam3n2 0 ) ( >= lam3n3 0 ) ( >= lam3n4 0 ) ( >= lam3n5 0 ) ( >= lam3n6 0 ) ( >= lam3n7 0 ) ( >= lam3n8 0 ) ( >= lam3n9 0 ) ( >= lam3n10 0 ) ( >= lam3n11 0 ) ( >= lam3n12 0 ) ( >= lam3n13 0 ) ( >= lam3n14 0 ) ( >= lam3n15 0 ) ( >= lam3n16 0 ) ( >= lam3n17 0 ) ( >= lam3n18 0 ) ( >= lam3n19 0 ) ( >= lam3n20 0 ) ( >= lam3n21 0 ) ( >= lam3n22 0 ) ( >= lam3n23 0 ) ( >= lam3n24 0 ) ( >= lam3n25 0 ) ( > ( + ( * 1 lam3n0 ) ( * 1 lam3n1 ) ( * 1 lam3n2 ) ( * 1 lam3n3 ) ( * 3 lam3n11 ) ( * 3 lam3n12 ) ( * 3 lam3n13 ) ( * 3 lam3n14 ) ( * 2 lam3n15 ) ( * 2 lam3n16 ) ( * 2 lam3n17 ) ( * 2 lam3n18 ) ( * 2 lam3n19 ) ( * 2 lam3n20 ) ( * 4 lam3n21 ) ( * 4 lam3n22 ) ( * 4 lam3n23 ) ( * ( - 1073741823 ) lam3n24 ) ( * Nl4CT1 lam3n25 ) ( - 1 ) ) 0 ) ( = ( + ( * ( - 1 ) lam3n4 ) ( * ( - 1 ) lam3n11 ) ( * ( - 1 ) lam3n12 ) ( * ( - 1 ) lam3n21 ) ( * Nl4arg11 lam3n25 ) ) 0 ) ( = ( + ( * ( - 1 ) lam3n0 ) ( * Nl4arg21 lam3n25 ) ) 0 ) ( = ( + ( * ( - 1 ) lam3n5 ) ( * ( - 1 ) lam3n15 ) ( * Nl4arg31 lam3n25 ) ) 0 ) ( = ( + ( * ( - 1 ) lam3n6 ) ( * 1 lam3n15 ) ( * Nl4arg41 lam3n25 ) ) 0 ) ( = ( + ( * ( - 1 ) lam3n1 ) ( * ( - 1 ) lam3n16 ) ( * ( - 1 ) lam3n17 ) ( * 1 lam3n24 ) ( * Nl4arg51 lam3n25 ) ) 0 ) ( = ( + ( * ( - 1 ) lam3n7 ) ( * 1 lam3n11 ) ( * 1 lam3n13 ) ( * 1 lam3n18 ) ( * Nl4arg61 lam3n25 ) ) 0 ) ( = ( + ( * 1 lam3n7 ) ( * 1 lam3n12 ) ( * 1 lam3n14 ) ( * 1 lam3n17 ) ( * 1 lam3n19 ) ( * 1 lam3n20 ) ( * Nl4arg71 lam3n25 ) ) 0 ) ( = ( * Nl4arg81 lam3n25 ) 0 ) ( = ( * Nl4arg91 lam3n25 ) 0 ) ( = ( * Nl4arg101 lam3n25 ) 0 ) ( = ( * Nl4arg111 lam3n25 ) 0 ) ( = ( * Nl4arg121 lam3n25 ) 0 ) ( = ( * Nl4arg131 lam3n25 ) 0 ) ( = ( * Nl4arg141 lam3n25 ) 0 ) ( = ( + ( * 1 lam3n4 ) ( * ( - 1 ) lam3n18 ) ( * ( - 1 ) lam3n19 ) ( * ( - 1 ) lam3n22 ) ) 0 ) ( = ( * 1 lam3n1 ) 0 ) ( = ( * ( - 1 ) lam3n8 ) 0 ) ( = ( * ( - 1 ) lam3n9 ) 0 ) ( = ( * ( - 1 ) lam3n10 ) 0 ) ( = ( + ( * ( - 1 ) lam3n13 ) ( * ( - 1 ) lam3n14 ) ( * ( - 1 ) lam3n17 ) ( * ( - 1 ) lam3n20 ) ( * ( - 1 ) lam3n23 ) ) 0 ) ( = ( * ( - 1 ) lam3n2 ) 0 ) ( = ( + ( * ( - 1 ) lam3n3 ) ( * ( - 1 ) lam3n13 ) ( * ( - 1 ) lam3n14 ) ) 0 ) ) ( and ( >= lam4n0 0 ) ( >= lam4n1 0 ) ( >= lam4n2 0 ) ( >= lam4n3 0 ) ( >= lam4n4 0 ) ( >= lam4n5 0 ) ( >= lam4n6 0 ) ( >= lam4n7 0 ) ( >= lam4n8 0 ) ( >= lam4n9 0 ) ( >= lam4n10 0 ) ( >= lam4n11 0 ) ( >= lam4n12 0 ) ( >= lam4n13 0 ) ( >= lam4n14 0 ) ( >= lam4n15 0 ) ( >= lam4n16 0 ) ( >= lam4n17 0 ) ( >= lam4n18 0 ) ( >= lam4n19 0 ) ( >= lam4n20 0 ) ( >= lam4n21 0 ) ( >= lam4n22 0 ) ( >= lam4n23 0 ) ( >= lam4n24 0 ) ( >= lam4n25 0 ) ( > ( + ( * 1 lam4n0 ) ( * 1 lam4n1 ) ( * 1 lam4n2 ) ( * 1 lam4n3 ) ( * 3 lam4n11 ) ( * 3 lam4n12 ) ( * 3 lam4n13 ) ( * 3 lam4n14 ) ( * 2 lam4n15 ) ( * 2 lam4n16 ) ( * 2 lam4n17 ) ( * 2 lam4n18 ) ( * 2 lam4n19 ) ( * 2 lam4n20 ) ( * 4 lam4n21 ) ( * 4 lam4n22 ) ( * 4 lam4n23 ) ( * ( - 1073741823 ) lam4n24 ) ( * Nl4CT1 lam4n25 ) ) 0 ) ( = ( + ( * ( - 1 ) lam4n4 ) ( * ( - 1 ) lam4n11 ) ( * ( - 1 ) lam4n12 ) ( * ( - 1 ) lam4n21 ) ( * Nl4arg11 lam4n25 ) ) 0 ) ( = ( + ( * ( - 1 ) lam4n0 ) ( * Nl4arg21 lam4n25 ) ) 0 ) ( = ( + ( * ( - 1 ) lam4n5 ) ( * ( - 1 ) lam4n15 ) ( * Nl4arg31 lam4n25 ) ) 0 ) ( = ( + ( * ( - 1 ) lam4n6 ) ( * 1 lam4n15 ) ( * Nl4arg41 lam4n25 ) ( - 1 ) ) 0 ) ( = ( + ( * ( - 1 ) lam4n1 ) ( * ( - 1 ) lam4n16 ) ( * ( - 1 ) lam4n17 ) ( * 1 lam4n24 ) ( * Nl4arg51 lam4n25 ) ) 0 ) ( = ( + ( * ( - 1 ) lam4n7 ) ( * 1 lam4n11 ) ( * 1 lam4n13 ) ( * 1 lam4n18 ) ( * Nl4arg61 lam4n25 ) ) 0 ) ( = ( + ( * 1 lam4n7 ) ( * 1 lam4n12 ) ( * 1 lam4n14 ) ( * 1 lam4n17 ) ( * 1 lam4n19 ) ( * 1 lam4n20 ) ( * Nl4arg71 lam4n25 ) ) 0 ) ( = ( * Nl4arg81 lam4n25 ) 0 ) ( = ( * Nl4arg91 lam4n25 ) 0 ) ( = ( * Nl4arg101 lam4n25 ) 0 ) ( = ( * Nl4arg111 lam4n25 ) 0 ) ( = ( * Nl4arg121 lam4n25 ) 0 ) ( = ( * Nl4arg131 lam4n25 ) 0 ) ( = ( * Nl4arg141 lam4n25 ) 0 ) ( = ( + ( * 1 lam4n4 ) ( * ( - 1 ) lam4n18 ) ( * ( - 1 ) lam4n19 ) ( * ( - 1 ) lam4n22 ) ( - 1 ) ) 0 ) ( = ( - 1 ) 0 ) ( = ( * 1 lam4n1 ) 0 ) ( = ( + ( * ( - 1 ) lam4n8 ) ( - 1 ) ) 0 ) ( = ( * ( - 1 ) lam4n9 ) 0 ) ( = ( * ( - 1 ) lam4n10 ) 0 ) ( = ( + ( * ( - 1 ) lam4n13 ) ( * ( - 1 ) lam4n14 ) ( * ( - 1 ) lam4n17 ) ( * ( - 1 ) lam4n20 ) ( * ( - 1 ) lam4n23 ) ) 0 ) ( = ( * ( - 1 ) lam4n2 ) 0 ) ( = ( + ( * ( - 1 ) lam4n3 ) ( * ( - 1 ) lam4n13 ) ( * ( - 1 ) lam4n14 ) ) 0 ) ) ) ( and ( and ( >= lam2n0 0 ) ( >= lam2n1 0 ) ( >= lam2n2 0 ) ( >= lam2n3 0 ) ( >= lam2n4 0 ) ( >= lam2n5 0 ) ( >= lam2n6 0 ) ( >= lam2n7 0 ) ( >= lam2n8 0 ) ( > ( + ( * 1 lam2n0 ) ( * 1 lam2n1 ) ( * 3 lam2n5 ) ( * 4 lam2n6 ) ( * ( - 14 ) lam2n7 ) ( * 15 lam2n8 ) ( - 1 ( + ( + ( + ( + ( + ( + ( + ( + ( + ( + ( + ( + ( + ( + Nl4CT1 ( * Nl4arg11 0 ) ) ( * Nl4arg21 0 ) ) ( * Nl4arg31 0 ) ) ( * Nl4arg41 1 ) ) ( * Nl4arg51 16 ) ) ( * Nl4arg61 0 ) ) ( * Nl4arg71 12 ) ) ( * Nl4arg81 0 ) ) ( * Nl4arg91 0 ) ) ( * Nl4arg101 0 ) ) ( * Nl4arg111 0 ) ) ( * Nl4arg121 0 ) ) ( * Nl4arg131 0 ) ) ( * Nl4arg141 0 ) ) ) ) 0 ) ( = ( + ( * 1 lam2n7 ) ( * ( - 1 ) lam2n8 ) ( - ( + 0 ( * Nl4arg11 1 ) ) ) ) 0 ) ( = ( + ( * ( - 1 ) lam2n0 ) ( - ( + 0 ( * Nl4arg21 1 ) ) ) ) 0 ) ( = ( - ( + 0 ( * Nl4arg81 1 ) ) ) 0 ) ( = ( - ( + 0 ( * Nl4arg91 1 ) ) ) 0 ) ( = ( - ( + 0 ( * Nl4arg101 1 ) ) ) 0 ) ( = ( - ( + 0 ( * Nl4arg111 1 ) ) ) 0 ) ( = ( - ( + 0 ( * Nl4arg121 1 ) ) ) 0 ) ( = ( - ( + 0 ( * Nl4arg131 1 ) ) ) 0 ) ( = ( - ( + 0 ( * Nl4arg141 1 ) ) ) 0 ) ( = ( * ( - 1 ) lam2n6 ) 0 ) ( = ( * ( - 1 ) lam2n2 ) 0 ) ( = ( * ( - 1 ) lam2n3 ) 0 ) ( = ( * ( - 1 ) lam2n4 ) 0 ) ( = ( + ( * ( - 1 ) lam2n1 ) ( * ( - 1 ) lam2n7 ) ) 0 ) ( = ( + ( * ( - 1 ) lam2n5 ) ( - ( + 0 ( * Nl4arg31 1 ) ) ) ) 0 ) ) ( and ( >= lam0n0 0 ) ( >= lam0n1 0 ) ( >= lam0n2 0 ) ( >= lam0n3 0 ) ( >= lam0n4 0 ) ( >= lam0n5 0 ) ( >= lam0n6 0 ) ( >= lam0n7 0 ) ( >= lam0n8 0 ) ( >= lam0n9 0 ) ( >= lam0n10 0 ) ( >= lam0n11 0 ) ( >= lam0n12 0 ) ( >= lam0n13 0 ) ( >= lam0n14 0 ) ( >= lam0n15 0 ) ( > ( + ( * 1 lam0n0 ) ( * 3 lam0n7 ) ( * 3 lam0n8 ) ( * 2 lam0n9 ) ( * 2 lam0n10 ) ( * 2 lam0n11 ) ( * 4 lam0n12 ) ( * 4 lam0n13 ) ( * 4 lam0n14 ) ( * Nl4CT1 lam0n15 ) ( - 1 ) ) 0 ) ( = ( + ( * ( - 1 ) lam0n7 ) ( * ( - 1 ) lam0n8 ) ( * ( - 1 ) lam0n12 ) ( * Nl4arg11 lam0n15 ) ) 0 ) ( = ( + ( * ( - 1 ) lam0n0 ) ( * Nl4arg21 lam0n15 ) ) 0 ) ( = ( + ( * ( - 1 ) lam0n9 ) ( * ( - 1 ) lam0n10 ) ( * Nl4arg31 lam0n15 ) ) 0 ) ( = ( + ( * ( - 1 ) lam0n1 ) ( * 1 lam0n10 ) ( * Nl4arg41 lam0n15 ) ) 0 ) ( = ( + ( * ( - 1 ) lam0n11 ) ( * Nl4arg51 lam0n15 ) ) 0 ) ( = ( + ( * 1 lam0n7 ) ( * Nl4arg61 lam0n15 ) ) 0 ) ( = ( + ( * 1 lam0n8 ) ( * Nl4arg71 lam0n15 ) ) 0 ) ( = ( * Nl4arg81 lam0n15 ) 0 ) ( = ( * Nl4arg91 lam0n15 ) 0 ) ( = ( * Nl4arg101 lam0n15 ) 0 ) ( = ( * Nl4arg111 lam0n15 ) 0 ) ( = ( * Nl4arg121 lam0n15 ) 0 ) ( = ( * Nl4arg131 lam0n15 ) 0 ) ( = ( * Nl4arg141 lam0n15 ) 0 ) ( = ( * ( - 1 ) lam0n13 ) 0 ) ( = ( * ( - 1 ) lam0n2 ) 0 ) ( = ( * ( - 1 ) lam0n3 ) 0 ) ( = ( * ( - 1 ) lam0n14 ) 0 ) ( = ( * ( - 1 ) lam0n4 ) 0 ) ( = ( * ( - 1 ) lam0n5 ) 0 ) ( = ( * ( - 1 ) lam0n6 ) 0 ) ) ) ))
(check-sat)
(exit)
